# 32695
param k := 6;
param n := 60;
param s := 1;
set E :=  (0,22) (0,59) (1,9) (1,36) (1,45) (2,50) (3,11) (4,30) (5,11) (5,12) (5,15) (5,40) (5,50) (6,32) (6,36) (7,18) (7,22) (7,35) (8,41) (8,56) (9,16) (9,45) (10,18) (13,58) (14,29) (14,56) (15,20) (15,36) (15,59) (17,27) (17,36) (17,38) (18,24) (18,56) (19,21) (20,21) (20,45) (21,26) (21,37) (21,53) (22,46) (23,25) (23,32) (26,44) (28,54) (29,49) (30,31) (30,42) (30,58) (31,59) (32,54) (33,48) (34,36) (36,55) (37,51) (39,59) (41,57) (43,55) (45,52) (47,57) (48,58);